scip/project/repair/build/stein27_1.lp
\ SCIP STATISTICS
\   Problem name     : stein27.fzn
\   Variables        : 29 (29 binary, 0 integer, 0 implicit integer, 0 continuous)
\   Constraints      : 118
\   Obj. scale       : 1
\   Obj. offset      : 0
Minimize
 Obj: +1 x0001 +1 x0002 +1 x0003 +1 x0004 +1 x0005 +1 x0006 +1 x0007 +1 x0008 +1 x0009 +1 x0010 +1 x0011
      +1 x0012 +1 x0013 +1 x0014 +1 x0015 +1 x0016 +1 x0017 +1 x0018 +1 x0019 +1 x0020 +1 x0021 +1 x0022
      +1 x0023 +1 x0024 +1 x0025 +1 x0026 +1 x0027
Subject to
 int_lin_ge: +1 x0002 +1 x0003 +1 x0004 >= +1
 int_lin_ge: +1 x0001 +1 x0003 +1 x0005 >= +1
 int_lin_ge: +1 x0001 +1 x0002 +1 x0006 >= +1
 int_lin_ge: +1 x0005 +1 x0006 +1 x0007 >= +1
 int_lin_ge: +1 x0004 +1 x0006 +1 x0008 >= +1
 int_lin_ge: +1 x0004 +1 x0005 +1 x0009 >= +1
 int_lin_ge: +1 x0001 +1 x0008 +1 x0009 >= +1
 int_lin_ge: +1 x0002 +1 x0007 +1 x0009 >= +1
 int_lin_ge: +1 x0003 +1 x0007 +1 x0008 >= +1
 int_lin_ge: +1 x0001 +1 x0004 +1 x0007 >= +1
 int_lin_ge: +1 x0002 +1 x0005 +1 x0008 >= +1
 int_lin_ge: +1 x0003 +1 x0006 +1 x0009 >= +1
 int_lin_ge: +1 x0011 +1 x0012 +1 x0013 >= +1
 int_lin_ge: +1 x0010 +1 x0012 +1 x0014 >= +1
 int_lin_ge: +1 x0010 +1 x0011 +1 x0015 >= +1
 int_lin_ge: +1 x0014 +1 x0015 +1 x0016 >= +1
 int_lin_ge: +1 x0013 +1 x0015 +1 x0017 >= +1
 int_lin_ge: +1 x0013 +1 x0014 +1 x0018 >= +1
 int_lin_ge: +1 x0010 +1 x0017 +1 x0018 >= +1
 int_lin_ge: +1 x0011 +1 x0016 +1 x0018 >= +1
 int_lin_ge: +1 x0012 +1 x0016 +1 x0017 >= +1
 int_lin_ge: +1 x0010 +1 x0013 +1 x0016 >= +1
 int_lin_ge: +1 x0011 +1 x0014 +1 x0017 >= +1
 int_lin_ge: +1 x0012 +1 x0015 +1 x0018 >= +1
 int_lin_ge: +1 x0020 +1 x0021 +1 x0022 >= +1
 int_lin_ge: +1 x0019 +1 x0021 +1 x0023 >= +1
 int_lin_ge: +1 x0019 +1 x0020 +1 x0024 >= +1
 int_lin_ge: +1 x0023 +1 x0024 +1 x0025 >= +1
 int_lin_ge: +1 x0022 +1 x0024 +1 x0026 >= +1
 int_lin_ge: +1 x0022 +1 x0023 +1 x0027 >= +1
 int_lin_ge: +1 x0019 +1 x0026 +1 x0027 >= +1
 int_lin_ge: +1 x0020 +1 x0025 +1 x0027 >= +1
 int_lin_ge: +1 x0021 +1 x0025 +1 x0026 >= +1
 int_lin_ge: +1 x0019 +1 x0022 +1 x0025 >= +1
 int_lin_ge: +1 x0020 +1 x0023 +1 x0026 >= +1
 int_lin_ge: +1 x0021 +1 x0024 +1 x0027 >= +1
 int_lin_ge: +1 x0001 +1 x0010 +1 x0019 >= +1
 int_lin_ge: +1 x0001 +1 x0011 +1 x0024 >= +1
 int_lin_ge: +1 x0001 +1 x0012 +1 x0023 >= +1
 int_lin_ge: +1 x0001 +1 x0013 +1 x0025 >= +1
 int_lin_ge: +1 x0001 +1 x0014 +1 x0021 >= +1
 int_lin_ge: +1 x0001 +1 x0015 +1 x0020 >= +1
 int_lin_ge: +1 x0001 +1 x0016 +1 x0022 >= +1
 int_lin_ge: +1 x0001 +1 x0017 +1 x0027 >= +1
 int_lin_ge: +1 x0001 +1 x0018 +1 x0026 >= +1
 int_lin_ge: +1 x0002 +1 x0010 +1 x0024 >= +1
 int_lin_ge: +1 x0002 +1 x0011 +1 x0020 >= +1
 int_lin_ge: +1 x0002 +1 x0012 +1 x0022 >= +1
 int_lin_ge: +1 x0002 +1 x0013 +1 x0021 >= +1
 int_lin_ge: +1 x0002 +1 x0014 +1 x0026 >= +1
 int_lin_ge: +1 x0002 +1 x0015 +1 x0019 >= +1
 int_lin_ge: +1 x0002 +1 x0016 +1 x0027 >= +1
 int_lin_ge: +1 x0002 +1 x0017 +1 x0023 >= +1
 int_lin_ge: +1 x0002 +1 x0018 +1 x0025 >= +1
 int_lin_ge: +1 x0003 +1 x0010 +1 x0023 >= +1
 int_lin_ge: +1 x0003 +1 x0011 +1 x0022 >= +1
 int_lin_ge: +1 x0003 +1 x0012 +1 x0021 >= +1
 int_lin_ge: +1 x0003 +1 x0013 +1 x0020 >= +1
 int_lin_ge: +1 x0003 +1 x0014 +1 x0019 >= +1
 int_lin_ge: +1 x0003 +1 x0015 +1 x0027 >= +1
 int_lin_ge: +1 x0003 +1 x0016 +1 x0026 >= +1
 int_lin_ge: +1 x0003 +1 x0017 +1 x0025 >= +1
 int_lin_ge: +1 x0003 +1 x0018 +1 x0024 >= +1
 int_lin_ge: +1 x0004 +1 x0010 +1 x0025 >= +1
 int_lin_ge: +1 x0004 +1 x0011 +1 x0021 >= +1
 int_lin_ge: +1 x0004 +1 x0012 +1 x0020 >= +1
 int_lin_ge: +1 x0004 +1 x0013 +1 x0022 >= +1
 int_lin_ge: +1 x0004 +1 x0014 +1 x0027 >= +1
 int_lin_ge: +1 x0004 +1 x0015 +1 x0026 >= +1
 int_lin_ge: +1 x0004 +1 x0016 +1 x0019 >= +1
 int_lin_ge: +1 x0004 +1 x0017 +1 x0024 >= +1
 int_lin_ge: +1 x0004 +1 x0018 +1 x0023 >= +1
 int_lin_ge: +1 x0005 +1 x0010 +1 x0021 >= +1
 int_lin_ge: +1 x0005 +1 x0011 +1 x0026 >= +1
 int_lin_ge: +1 x0005 +1 x0012 +1 x0019 >= +1
 int_lin_ge: +1 x0005 +1 x0013 +1 x0027 >= +1
 int_lin_ge: +1 x0005 +1 x0014 +1 x0023 >= +1
 int_lin_ge: +1 x0005 +1 x0015 +1 x0025 >= +1
 int_lin_ge: +1 x0005 +1 x0016 +1 x0024 >= +1
 int_lin_ge: +1 x0005 +1 x0017 +1 x0020 >= +1
 int_lin_ge: +1 x0005 +1 x0018 +1 x0022 >= +1
 int_lin_ge: +1 x0006 +1 x0010 +1 x0020 >= +1
 int_lin_ge: +1 x0006 +1 x0011 +1 x0019 >= +1
 int_lin_ge: +1 x0006 +1 x0012 +1 x0027 >= +1
 int_lin_ge: +1 x0006 +1 x0013 +1 x0026 >= +1
 int_lin_ge: +1 x0006 +1 x0014 +1 x0025 >= +1
 int_lin_ge: +1 x0006 +1 x0015 +1 x0024 >= +1
 int_lin_ge: +1 x0006 +1 x0016 +1 x0023 >= +1
 int_lin_ge: +1 x0006 +1 x0017 +1 x0022 >= +1
 int_lin_ge: +1 x0006 +1 x0018 +1 x0021 >= +1
 int_lin_ge: +1 x0007 +1 x0010 +1 x0022 >= +1
 int_lin_ge: +1 x0007 +1 x0011 +1 x0027 >= +1
 int_lin_ge: +1 x0007 +1 x0012 +1 x0026 >= +1
 int_lin_ge: +1 x0007 +1 x0013 +1 x0019 >= +1
 int_lin_ge: +1 x0007 +1 x0014 +1 x0024 >= +1
 int_lin_ge: +1 x0007 +1 x0015 +1 x0023 >= +1
 int_lin_ge: +1 x0007 +1 x0016 +1 x0025 >= +1
 int_lin_ge: +1 x0007 +1 x0017 +1 x0021 >= +1
 int_lin_ge: +1 x0007 +1 x0018 +1 x0020 >= +1
 int_lin_ge: +1 x0008 +1 x0010 +1 x0027 >= +1
 int_lin_ge: +1 x0008 +1 x0011 +1 x0023 >= +1
 int_lin_ge: +1 x0008 +1 x0012 +1 x0025 >= +1
 int_lin_ge: +1 x0008 +1 x0013 +1 x0024 >= +1
 int_lin_ge: +1 x0008 +1 x0014 +1 x0020 >= +1
 int_lin_ge: +1 x0008 +1 x0015 +1 x0022 >= +1
 int_lin_ge: +1 x0008 +1 x0016 +1 x0021 >= +1
 int_lin_ge: +1 x0008 +1 x0017 +1 x0026 >= +1
 int_lin_ge: +1 x0008 +1 x0018 +1 x0019 >= +1
 int_lin_ge: +1 x0009 +1 x0010 +1 x0026 >= +1
 int_lin_ge: +1 x0009 +1 x0011 +1 x0025 >= +1
 int_lin_ge: +1 x0009 +1 x0012 +1 x0024 >= +1
 int_lin_ge: +1 x0009 +1 x0013 +1 x0023 >= +1
 int_lin_ge: +1 x0009 +1 x0014 +1 x0022 >= +1
 int_lin_ge: +1 x0009 +1 x0015 +1 x0021 >= +1
 int_lin_ge: +1 x0009 +1 x0016 +1 x0020 >= +1
 int_lin_ge: +1 x0009 +1 x0017 +1 x0019 >= +1
 int_lin_ge: +1 x0009 +1 x0018 +1 x0027 >= +1
 int_lin_ge: +1 x0001 +1 x0002 +1 x0003 +1 x0004 +1 x0005 +1 x0006 +1 x0007 +1 x0008 +1 x0009 +1 x0010
  +1 x0011 +1 x0012 +1 x0013 +1 x0014 +1 x0015 +1 x0016 +1 x0017 +1 x0018 +1 x0019 +1 x0020 +1 x0021 +1 x0022
  +1 x0023 +1 x0024 +1 x0025 +1 x0026 +1 x0027 >= +13
Bounds
 1 <= true <= 1
 0 <= false <= 0
 0 <= x0001 <= 1
 0 <= x0002 <= 1
 0 <= x0003 <= 1
 0 <= x0004 <= 1
 0 <= x0005 <= 1
 0 <= x0006 <= 1
 0 <= x0007 <= 1
 0 <= x0008 <= 1
 0 <= x0009 <= 1
 0 <= x0010 <= 1
 0 <= x0011 <= 1
 0 <= x0012 <= 1
 0 <= x0013 <= 1
 0 <= x0014 <= 1
 0 <= x0015 <= 1
 0 <= x0016 <= 1
 0 <= x0017 <= 1
 0 <= x0018 <= 1
 0 <= x0019 <= 1
 0 <= x0020 <= 1
 0 <= x0021 <= 1
 0 <= x0022 <= 1
 0 <= x0023 <= 1
 0 <= x0024 <= 1
 0 <= x0025 <= 1
 0 <= x0026 <= 1
 0 <= x0027 <= 1
Binaries
 true false x0001 x0002 x0003 x0004 x0005 x0006 x0007 x0008 x0009 x0010 x0011 x0012 x0013 x0014 x0015
 x0016 x0017 x0018 x0019 x0020 x0021 x0022 x0023 x0024 x0025 x0026 x0027
End
